experiment/data/lkh-res/Vrp-Set-A-n38/Vrp-Set-A-n38-lkh/0.lkh1.vrp
NAME : 0
COMMENT : CVRP Instance
TYPE : CVRP
DIMENSION : 38
EDGE_WEIGHT_TYPE : EUC_2D
CAPACITY : 100
NODE_COORD_SECTION
1	6900	6300
2	300	3500
3	7100	7900
4	100	4700
5	1100	1500
6	8700	2300
7	3700	3300
8	8700	2900
9	3500	8100
10	5500	7100
11	4100	5100
12	9300	900
13	1100	4900
14	7500	8900
15	7500	6900
16	9700	9500
17	1500	1300
18	6300	9500
19	4700	4100
20	4500	4100
21	8900	4300
22	4500	5900
23	9500	2300
24	1900	8300
25	7100	6900
26	2700	1900
27	1700	5700
28	9300	1500
29	5900	2900
30	3500	3900
31	3300	5100
32	6100	2100
33	8900	5300
34	3300	8500
35	3700	3700
36	2100	9100
37	6700	9500
38	6100	1500
DEMAND_SECTION
1	0
2	12
3	5
4	8
5	12
6	18
7	12
8	11
9	19
10	23
11	8
12	25
13	1
14	5
15	17
16	13
17	9
18	13
19	19
20	5
21	26
22	9
23	20
24	21
25	8
26	12
27	13
28	12
29	4
30	19
31	25
32	7
33	3
34	2
35	24
36	13
37	14
38	14
DEPOT_SECTION
1
-1
EOF
